VER
2

OBJSENSE
MIN

VAR
120 1
L+ 120

INT
120
0
1
2
3
4
5
6
7
8
9
10
11
12
13
14
15
16
17
18
19
20
21
22
23
24
25
26
27
28
29
30
31
32
33
34
35
36
37
38
39
40
41
42
43
44
45
46
47
48
49
50
51
52
53
54
55
56
57
58
59
60
61
62
63
64
65
66
67
68
69
70
71
72
73
74
75
76
77
78
79
80
81
82
83
84
85
86
87
88
89
90
91
92
93
94
95
96
97
98
99
100
101
102
103
104
105
106
107
108
109
110
111
112
113
114
115
116
117
118
119

CON
152 1
L+ 152

PSDCON
1
16

OBJACOORD
32
0 58796
2 5321
3 1426
11 155810
15 156870
18 112600
26 73935
29 40929
32 72683
40 -33728
45 -155610
53 90209
54 -14354
56 196360
57 57358
65 84824
68 -126570
75 35001
78 -72801
87 94843
92 -93394
94 -138660
95 93909
99 52797
102 -42342
105 -16947
108 83855
113 28782
114 -35486
116 -25983
117 -44214
119 62411

ACOORD
600
0 0 -1
1 1 -1
2 2 -1
3 3 -1
4 4 -1
5 5 -1
6 6 -1
7 7 -1
8 8 -1
9 9 -1
10 10 -1
11 11 -1
12 12 -1
13 13 -1
14 14 -1
15 15 -1
16 16 -1
17 17 -1
18 18 -1
19 19 -1
20 20 -1
21 21 -1
22 22 -1
23 23 -1
24 24 -1
25 25 -1
26 26 -1
27 27 -1
28 28 -1
29 29 -1
30 30 -1
31 31 -1
32 32 -1
33 33 -1
34 34 -1
35 35 -1
36 36 -1
37 37 -1
38 38 -1
39 39 -1
40 40 -1
41 41 -1
42 42 -1
43 43 -1
44 44 -1
45 45 -1
46 46 -1
47 47 -1
48 48 -1
49 49 -1
50 50 -1
51 51 -1
52 52 -1
53 53 -1
54 54 -1
55 55 -1
56 56 -1
57 57 -1
58 58 -1
59 59 -1
60 60 -1
61 61 -1
62 62 -1
63 63 -1
64 64 -1
65 65 -1
66 66 -1
67 67 -1
68 68 -1
69 69 -1
70 70 -1
71 71 -1
72 72 -1
73 73 -1
74 74 -1
75 75 -1
76 76 -1
77 77 -1
78 78 -1
79 79 -1
80 80 -1
81 81 -1
82 82 -1
83 83 -1
84 84 -1
85 85 -1
86 86 -1
87 87 -1
88 88 -1
89 89 -1
90 90 -1
91 91 -1
92 92 -1
93 93 -1
94 94 -1
95 95 -1
96 96 -1
97 97 -1
98 98 -1
99 99 -1
100 100 -1
101 101 -1
102 102 -1
103 103 -1
104 104 -1
105 105 -1
106 106 -1
107 107 -1
108 108 -1
109 109 -1
110 110 -1
111 111 -1
112 112 -1
113 113 -1
114 114 -1
115 115 -1
116 116 -1
117 117 -1
118 118 -1
119 119 -1
120 0 1
120 1 1
120 2 1
120 3 1
120 4 1
120 5 1
120 6 1
120 7 1
120 8 1
120 9 1
120 10 1
120 11 1
120 12 1
120 13 1
120 14 1
121 0 -1
121 1 -1
121 2 -1
121 3 -1
121 4 -1
121 5 -1
121 6 -1
121 7 -1
121 8 -1
121 9 -1
121 10 -1
121 11 -1
121 12 -1
121 13 -1
121 14 -1
122 0 1
122 15 1
122 16 1
122 17 1
122 18 1
122 19 1
122 20 1
122 21 1
122 22 1
122 23 1
122 24 1
122 25 1
122 26 1
122 27 1
122 28 1
123 0 -1
123 15 -1
123 16 -1
123 17 -1
123 18 -1
123 19 -1
123 20 -1
123 21 -1
123 22 -1
123 23 -1
123 24 -1
123 25 -1
123 26 -1
123 27 -1
123 28 -1
124 1 1
124 15 1
124 29 1
124 30 1
124 31 1
124 32 1
124 33 1
124 34 1
124 35 1
124 36 1
124 37 1
124 38 1
124 39 1
124 40 1
124 41 1
125 1 -1
125 15 -1
125 29 -1
125 30 -1
125 31 -1
125 32 -1
125 33 -1
125 34 -1
125 35 -1
125 36 -1
125 37 -1
125 38 -1
125 39 -1
125 40 -1
125 41 -1
126 2 1
126 16 1
126 29 1
126 42 1
126 43 1
126 44 1
126 45 1
126 46 1
126 47 1
126 48 1
126 49 1
126 50 1
126 51 1
126 52 1
126 53 1
127 2 -1
127 16 -1
127 29 -1
127 42 -1
127 43 -1
127 44 -1
127 45 -1
127 46 -1
127 47 -1
127 48 -1
127 49 -1
127 50 -1
127 51 -1
127 52 -1
127 53 -1
128 3 1
128 17 1
128 30 1
128 42 1
128 54 1
128 55 1
128 56 1
128 57 1
128 58 1
128 59 1
128 60 1
128 61 1
128 62 1
128 63 1
128 64 1
129 3 -1
129 17 -1
129 30 -1
129 42 -1
129 54 -1
129 55 -1
129 56 -1
129 57 -1
129 58 -1
129 59 -1
129 60 -1
129 61 -1
129 62 -1
129 63 -1
129 64 -1
130 4 1
130 18 1
130 31 1
130 43 1
130 54 1
130 65 1
130 66 1
130 67 1
130 68 1
130 69 1
130 70 1
130 71 1
130 72 1
130 73 1
130 74 1
131 4 -1
131 18 -1
131 31 -1
131 43 -1
131 54 -1
131 65 -1
131 66 -1
131 67 -1
131 68 -1
131 69 -1
131 70 -1
131 71 -1
131 72 -1
131 73 -1
131 74 -1
132 5 1
132 19 1
132 32 1
132 44 1
132 55 1
132 65 1
132 75 1
132 76 1
132 77 1
132 78 1
132 79 1
132 80 1
132 81 1
132 82 1
132 83 1
133 5 -1
133 19 -1
133 32 -1
133 44 -1
133 55 -1
133 65 -1
133 75 -1
133 76 -1
133 77 -1
133 78 -1
133 79 -1
133 80 -1
133 81 -1
133 82 -1
133 83 -1
134 6 1
134 20 1
134 33 1
134 45 1
134 56 1
134 66 1
134 75 1
134 84 1
134 85 1
134 86 1
134 87 1
134 88 1
134 89 1
134 90 1
134 91 1
135 6 -1
135 20 -1
135 33 -1
135 45 -1
135 56 -1
135 66 -1
135 75 -1
135 84 -1
135 85 -1
135 86 -1
135 87 -1
135 88 -1
135 89 -1
135 90 -1
135 91 -1
136 7 1
136 21 1
136 34 1
136 46 1
136 57 1
136 67 1
136 76 1
136 84 1
136 92 1
136 93 1
136 94 1
136 95 1
136 96 1
136 97 1
136 98 1
137 7 -1
137 21 -1
137 34 -1
137 46 -1
137 57 -1
137 67 -1
137 76 -1
137 84 -1
137 92 -1
137 93 -1
137 94 -1
137 95 -1
137 96 -1
137 97 -1
137 98 -1
138 8 1
138 22 1
138 35 1
138 47 1
138 58 1
138 68 1
138 77 1
138 85 1
138 92 1
138 99 1
138 100 1
138 101 1
138 102 1
138 103 1
138 104 1
139 8 -1
139 22 -1
139 35 -1
139 47 -1
139 58 -1
139 68 -1
139 77 -1
139 85 -1
139 92 -1
139 99 -1
139 100 -1
139 101 -1
139 102 -1
139 103 -1
139 104 -1
140 9 1
140 23 1
140 36 1
140 48 1
140 59 1
140 69 1
140 78 1
140 86 1
140 93 1
140 99 1
140 105 1
140 106 1
140 107 1
140 108 1
140 109 1
141 9 -1
141 23 -1
141 36 -1
141 48 -1
141 59 -1
141 69 -1
141 78 -1
141 86 -1
141 93 -1
141 99 -1
141 105 -1
141 106 -1
141 107 -1
141 108 -1
141 109 -1
142 10 1
142 24 1
142 37 1
142 49 1
142 60 1
142 70 1
142 79 1
142 87 1
142 94 1
142 100 1
142 105 1
142 110 1
142 111 1
142 112 1
142 113 1
143 10 -1
143 24 -1
143 37 -1
143 49 -1
143 60 -1
143 70 -1
143 79 -1
143 87 -1
143 94 -1
143 100 -1
143 105 -1
143 110 -1
143 111 -1
143 112 -1
143 113 -1
144 11 1
144 25 1
144 38 1
144 50 1
144 61 1
144 71 1
144 80 1
144 88 1
144 95 1
144 101 1
144 106 1
144 110 1
144 114 1
144 115 1
144 116 1
145 11 -1
145 25 -1
145 38 -1
145 50 -1
145 61 -1
145 71 -1
145 80 -1
145 88 -1
145 95 -1
145 101 -1
145 106 -1
145 110 -1
145 114 -1
145 115 -1
145 116 -1
146 12 1
146 26 1
146 39 1
146 51 1
146 62 1
146 72 1
146 81 1
146 89 1
146 96 1
146 102 1
146 107 1
146 111 1
146 114 1
146 117 1
146 118 1
147 12 -1
147 26 -1
147 39 -1
147 51 -1
147 62 -1
147 72 -1
147 81 -1
147 89 -1
147 96 -1
147 102 -1
147 107 -1
147 111 -1
147 114 -1
147 117 -1
147 118 -1
148 13 1
148 27 1
148 40 1
148 52 1
148 63 1
148 73 1
148 82 1
148 90 1
148 97 1
148 103 1
148 108 1
148 112 1
148 115 1
148 117 1
148 119 1
149 13 -1
149 27 -1
149 40 -1
149 52 -1
149 63 -1
149 73 -1
149 82 -1
149 90 -1
149 97 -1
149 103 -1
149 108 -1
149 112 -1
149 115 -1
149 117 -1
149 119 -1
150 14 1
150 28 1
150 41 1
150 53 1
150 64 1
150 74 1
150 83 1
150 91 1
150 98 1
150 104 1
150 109 1
150 113 1
150 116 1
150 118 1
150 119 1
151 14 -1
151 28 -1
151 41 -1
151 53 -1
151 64 -1
151 74 -1
151 83 -1
151 91 -1
151 98 -1
151 104 -1
151 109 -1
151 113 -1
151 116 -1
151 118 -1
151 119 -1

BCOORD
152
0 1
1 1
2 1
3 1
4 1
5 1
6 1
7 1
8 1
9 1
10 1
11 1
12 1
13 1
14 1
15 1
16 1
17 1
18 1
19 1
20 1
21 1
22 1
23 1
24 1
25 1
26 1
27 1
28 1
29 1
30 1
31 1
32 1
33 1
34 1
35 1
36 1
37 1
38 1
39 1
40 1
41 1
42 1
43 1
44 1
45 1
46 1
47 1
48 1
49 1
50 1
51 1
52 1
53 1
54 1
55 1
56 1
57 1
58 1
59 1
60 1
61 1
62 1
63 1
64 1
65 1
66 1
67 1
68 1
69 1
70 1
71 1
72 1
73 1
74 1
75 1
76 1
77 1
78 1
79 1
80 1
81 1
82 1
83 1
84 1
85 1
86 1
87 1
88 1
89 1
90 1
91 1
92 1
93 1
94 1
95 1
96 1
97 1
98 1
99 1
100 1
101 1
102 1
103 1
104 1
105 1
106 1
107 1
108 1
109 1
110 1
111 1
112 1
113 1
114 1
115 1
116 1
117 1
118 1
119 1
120 -4
121 5
122 -4
123 5
124 -4
125 5
126 -4
127 5
128 -4
129 5
130 -4
131 5
132 -4
133 5
134 -4
135 5
136 -4
137 5
138 -4
139 5
140 -4
141 5
142 -4
143 5
144 -4
145 5
146 -4
147 5
148 -4
149 5
150 -4
151 5

HCOORD
120
0 0 1 0 1.5
0 1 2 0 1.5
0 2 3 0 1.5
0 3 4 0 1.5
0 4 5 0 1.5
0 5 6 0 1.5
0 6 7 0 1.5
0 7 8 0 1.5
0 8 9 0 1.5
0 9 10 0 1.5
0 10 11 0 1.5
0 11 12 0 1.5
0 12 13 0 1.5
0 13 14 0 1.5
0 14 15 0 1.5
0 15 2 1 1.5
0 16 3 1 1.5
0 17 4 1 1.5
0 18 5 1 1.5
0 19 6 1 1.5
0 20 7 1 1.5
0 21 8 1 1.5
0 22 9 1 1.5
0 23 10 1 1.5
0 24 11 1 1.5
0 25 12 1 1.5
0 26 13 1 1.5
0 27 14 1 1.5
0 28 15 1 1.5
0 29 3 2 1.5
0 30 4 2 1.5
0 31 5 2 1.5
0 32 6 2 1.5
0 33 7 2 1.5
0 34 8 2 1.5
0 35 9 2 1.5
0 36 10 2 1.5
0 37 11 2 1.5
0 38 12 2 1.5
0 39 13 2 1.5
0 40 14 2 1.5
0 41 15 2 1.5
0 42 4 3 1.5
0 43 5 3 1.5
0 44 6 3 1.5
0 45 7 3 1.5
0 46 8 3 1.5
0 47 9 3 1.5
0 48 10 3 1.5
0 49 11 3 1.5
0 50 12 3 1.5
0 51 13 3 1.5
0 52 14 3 1.5
0 53 15 3 1.5
0 54 5 4 1.5
0 55 6 4 1.5
0 56 7 4 1.5
0 57 8 4 1.5
0 58 9 4 1.5
0 59 10 4 1.5
0 60 11 4 1.5
0 61 12 4 1.5
0 62 13 4 1.5
0 63 14 4 1.5
0 64 15 4 1.5
0 65 6 5 1.5
0 66 7 5 1.5
0 67 8 5 1.5
0 68 9 5 1.5
0 69 10 5 1.5
0 70 11 5 1.5
0 71 12 5 1.5
0 72 13 5 1.5
0 73 14 5 1.5
0 74 15 5 1.5
0 75 7 6 1.5
0 76 8 6 1.5
0 77 9 6 1.5
0 78 10 6 1.5
0 79 11 6 1.5
0 80 12 6 1.5
0 81 13 6 1.5
0 82 14 6 1.5
0 83 15 6 1.5
0 84 8 7 1.5
0 85 9 7 1.5
0 86 10 7 1.5
0 87 11 7 1.5
0 88 12 7 1.5
0 89 13 7 1.5
0 90 14 7 1.5
0 91 15 7 1.5
0 92 9 8 1.5
0 93 10 8 1.5
0 94 11 8 1.5
0 95 12 8 1.5
0 96 13 8 1.5
0 97 14 8 1.5
0 98 15 8 1.5
0 99 10 9 1.5
0 100 11 9 1.5
0 101 12 9 1.5
0 102 13 9 1.5
0 103 14 9 1.5
0 104 15 9 1.5
0 105 11 10 1.5
0 106 12 10 1.5
0 107 13 10 1.5
0 108 14 10 1.5
0 109 15 10 1.5
0 110 12 11 1.5
0 111 13 11 1.5
0 112 14 11 1.5
0 113 15 11 1.5
0 114 13 12 1.5
0 115 14 12 1.5
0 116 15 12 1.5
0 117 14 13 1.5
0 118 15 13 1.5
0 119 15 14 1.5

DCOORD
136
0 0 0 1
0 1 1 1
0 2 2 1
0 3 3 1
0 4 4 1
0 5 5 1
0 6 6 1
0 7 7 1
0 8 8 1
0 9 9 1
0 10 10 1
0 11 11 1
0 12 12 1
0 13 13 1
0 14 14 1
0 15 15 1
0 1 0 -0.5
0 2 0 -0.5
0 3 0 -0.5
0 4 0 -0.5
0 5 0 -0.5
0 6 0 -0.5
0 7 0 -0.5
0 8 0 -0.5
0 9 0 -0.5
0 10 0 -0.5
0 11 0 -0.5
0 12 0 -0.5
0 13 0 -0.5
0 14 0 -0.5
0 15 0 -0.5
0 2 1 -0.5
0 3 1 -0.5
0 4 1 -0.5
0 5 1 -0.5
0 6 1 -0.5
0 7 1 -0.5
0 8 1 -0.5
0 9 1 -0.5
0 10 1 -0.5
0 11 1 -0.5
0 12 1 -0.5
0 13 1 -0.5
0 14 1 -0.5
0 15 1 -0.5
0 3 2 -0.5
0 4 2 -0.5
0 5 2 -0.5
0 6 2 -0.5
0 7 2 -0.5
0 8 2 -0.5
0 9 2 -0.5
0 10 2 -0.5
0 11 2 -0.5
0 12 2 -0.5
0 13 2 -0.5
0 14 2 -0.5
0 15 2 -0.5
0 4 3 -0.5
0 5 3 -0.5
0 6 3 -0.5
0 7 3 -0.5
0 8 3 -0.5
0 9 3 -0.5
0 10 3 -0.5
0 11 3 -0.5
0 12 3 -0.5
0 13 3 -0.5
0 14 3 -0.5
0 15 3 -0.5
0 5 4 -0.5
0 6 4 -0.5
0 7 4 -0.5
0 8 4 -0.5
0 9 4 -0.5
0 10 4 -0.5
0 11 4 -0.5
0 12 4 -0.5
0 13 4 -0.5
0 14 4 -0.5
0 15 4 -0.5
0 6 5 -0.5
0 7 5 -0.5
0 8 5 -0.5
0 9 5 -0.5
0 10 5 -0.5
0 11 5 -0.5
0 12 5 -0.5
0 13 5 -0.5
0 14 5 -0.5
0 15 5 -0.5
0 7 6 -0.5
0 8 6 -0.5
0 9 6 -0.5
0 10 6 -0.5
0 11 6 -0.5
0 12 6 -0.5
0 13 6 -0.5
0 14 6 -0.5
0 15 6 -0.5
0 8 7 -0.5
0 9 7 -0.5
0 10 7 -0.5
0 11 7 -0.5
0 12 7 -0.5
0 13 7 -0.5
0 14 7 -0.5
0 15 7 -0.5
0 9 8 -0.5
0 10 8 -0.5
0 11 8 -0.5
0 12 8 -0.5
0 13 8 -0.5
0 14 8 -0.5
0 15 8 -0.5
0 10 9 -0.5
0 11 9 -0.5
0 12 9 -0.5
0 13 9 -0.5
0 14 9 -0.5
0 15 9 -0.5
0 11 10 -0.5
0 12 10 -0.5
0 13 10 -0.5
0 14 10 -0.5
0 15 10 -0.5
0 12 11 -0.5
0 13 11 -0.5
0 14 11 -0.5
0 15 11 -0.5
0 13 12 -0.5
0 14 12 -0.5
0 15 12 -0.5
0 14 13 -0.5
0 15 13 -0.5
0 15 14 -0.5
